\ LP format - for model browsing. Use MPS format to capture full model detail.
Minimize
  zed
Subject To
 R0: h + d <= 150
 R1: d >= 10
 R2: - 0.3 h + 0.7 d <= 0
 R3: - 10 h - 6 d + zed = 0
Bounds
Generals
 h d
End
